7 10 0 5 2 3 5 10 7 -1 
9 7 -1 -1 8 9 4 0 8 -1 
-1 2 2 8 -1 7 2 -1 6 -1 
8 9 -1 8 1 8 1 9 -1 -1 
3 9 6 2 1 4 8 10 6 -1 
4 1 7 3 9 3 6 0 6 -1 
4 1 -1 1 8 4 1 -1 0 -1 
4 7 6 0 6 4 4 3 7 -1 
0 1 1 -1 8 2 1 9 7 -1 
7 2 3 2 4 4 -1 7 3 -1 
10 5 3 0 10 1 8 -1 9 -1 
10 7 1 2 2 4 8 -1 9 -1 
2 -1 -1 1 8 0 8 -1 8 -1 
2 1 7 8 5 3 1 8 0 -1 
3 4 8 1 7 9 5 0 0 -1 
-1 2 6 7 9 2 7 6 -1 -1 
9 4 7 -1 6 9 -1 5 0 -1 
0 -1 6 7 3 7 6 0 2 -1 
9 4 3 0 2 5 2 0 2 -1 
10 5 -1 10 1 10 9 1 4 -1 
9 3 2 1 8 4 6 10 7 -1 
-1 1 1 -1 10 0 -1 1 2 -1 
2 2 3 4 6 1 2 7 1 -1 
1 10 3 10 6 7 9 3 10 -1 
2 9 3 3 -1 1 9 0 6 -1 
10 2 10 5 1 7 5 5 3 -1 
1 1 8 8 2 -1 9 3 7 -1 
8 10 1 9 -1 4 -1 2 8 -1 
10 0 8 8 7 -1 7 3 -1 -1 
4 3 7 4 -1 3 9 4 8 -1 
6 -1 10 8 6 0 10 8 -1 -1 
5 2 1 10 0 7 1 5 5 -1 
1 8 9 -1 7 1 8 10 6 -1 
8 9 8 8 -1 9 9 6 1 -1 
0 4 2 10 2 0 1 3 1 -1 
1 1 7 9 -1 0 1 0 5 -1 
0 0 9 6 4 -1 0 6 7 -1 
-1 3 0 6 5 1 3 7 3 -1 
-1 0 0 5 0 3 9 9 -1 -1 
4 1 10 8 10 1 7 9 -1 -1 
0 1 1 3 1 10 5 9 6 -1 
10 3 10 -1 6 0 6 1 4 -1 
4 6 6 2 9 7 10 -1 8 -1 
5 -1 3 3 -1 8 4 1 7 -1 
8 7 7 -1 9 0 6 6 7 -1 
0 7 0 5 2 2 2 -1 4 -1 
-1 1 6 3 5 6 5 5 0 -1 
1 1 5 1 10 -1 7 8 8 -1 
8 6 9 3 6 10 3 5 1 -1 
7 3 8 5 9 4 9 7 9 -1 
